Best Cost: 20772,285683
Best Solution: 0, 5, 1, 2, 3, 8, 9, 4, 7, 6
History: 22646,079213, 22646,079213, 22213,596001, 
21914,893131, 21914,893131, 21914,893131, 
21914,893131, 21914,893131, 21914,893131, 
21914,893131, 21914,893131, 21914,893131, 
21914,893131, 21914,893131, 21914,893131, 
21914,893131, 21914,893131, 21914,893131, 
21914,893131, 21914,893131, 21670,772538, 
21670,772538, 21670,772538, 21670,772538, 
21670,772538, 21670,772538, 21670,772538, 
21670,772538, 21670,772538, 21670,772538, 
21670,772538, 21670,772538, 21670,772538, 
21670,772538, 21670,772538, 21670,772538, 
21670,772538, 21670,772538, 21670,772538, 
21670,772538, 21670,772538, 21670,772538, 
21670,772538, 21670,772538, 21670,772538, 
21670,772538, 21278,043618, 21278,043618, 
21063,842467, 21063,842467, 21063,842467, 
21063,842467, 21063,842467, 21063,842467, 
21063,842467, 21063,842467, 21063,842467, 
21063,842467, 21063,842467, 21063,842467, 
21063,842467, 21063,842467, 21063,842467, 
21063,842467, 21063,842467, 21063,842467, 
21063,842467, 21063,842467, 21063,842467, 
21063,842467, 21063,842467, 21063,842467, 
20772,285683, 20772,285683, 20772,285683, 
20772,285683, 20772,285683, 20772,285683, 
20772,285683, 20772,285683, 20772,285683, 
20772,285683, 20772,285683, 20772,285683, 
20772,285683, 20772,285683, 20772,285683, 
20772,285683, 20772,285683, 20772,285683, 
20772,285683, 20772,285683, 20772,285683, 
20772,285683, 20772,285683, 20772,285683, 
20772,285683, 20772,285683, 20772,285683, 
20772,285683


